\ENCODING=ISO-8859-1
\Problem name: ilog.cplex

Minimize
 obj1: 100208 x1 + 98158 x2 + 94146 x3 + 92852 x4 + 104967 x5 + 104582 x6
       + 98328 x7 + 93041 x8 + 109330 x9 + 91333 x10 + 94906 x11 + 103816 x12
       + 105147 x13 + 91858 x14 + 108187 x15 + 100940 x16 + 99439 x17
       + 92137 x18 + 104232 x19 + 96876 x20 + 96994 x21 + 108447 x22
       + 101906 x23 + 99419 x24 + 103915 x25 + 108749 x26 + 107534 x27
       + 94137 x28 + 109106 x29 + 97486 x30 + 109219 x31 + 98020 x32
       + 101478 x33 + 97646 x34 + 95481 x35 + 106083 x36 + 102094 x37
       + 103669 x38 + 102139 x39 + 102711 x40 + 92490 x41 + 104095 x42
       + 101186 x43 + 95172 x44 + 103139 x45 + 103810 x46 + 105939 x47
       + 107998 x48 + 109268 x49 + 92339 x50 + 106823 x51 + 101870 x52
       + 108778 x53 + 92991 x54 + 106172 x55 + 90505 x56 + 108743 x57
       + 106053 x58 + 106318 x59 + 97926 x60 + 106400 x61 + 94786 x62
       + 105605 x63 + 101302 x64 + 108591 x65 + 107010 x66 + 94019 x67
       + 109008 x68 + 108370 x69 + 103548 x70 + 90339 x71 + 91116 x72
       + 96846 x73 + 96750 x74 + 107208 x75 + 92790 x76 + 106172 x77
       + 108102 x78 + 105730 x79 + 107365 x80 + 96926 x81 + 109995 x82
       + 108395 x83 + 92637 x84 + 100645 x85 + 106264 x86 + 91964 x87
       + 91225 x88 + 101444 x89 + 96310 x90 + 100420 x91 + 103888 x92
       + 109369 x93 + 98382 x94 + 102139 x95 + 103280 x96 + 102593 x97
       + 99050 x98 + 105190 x99 + 104839 x100 + 91423 x101 + 105587 x102
       + 109522 x103 + 99250 x104 + 98748 x105 + 102665 x106 + 96844 x107
       + 92715 x108 + 109807 x109 + 92129 x110 + 106460 x111 + 104399 x112
       + 98207 x113 + 104864 x114 + 107804 x115 + 100362 x116 + 102699 x117
       + 105856 x118 + 95875 x119 + 96542 x120 + 108182 x121 + 106693 x122
       + 91678 x123 + 106201 x124 + 92057 x125 + 96700 x126 + 91370 x127
       + 101001 x128 + 109075 x129 + 92464 x130 + 102067 x131 + 100080 x132
       + 92648 x133 + 106142 x134 + 99993 x135 + 107457 x136 + 106118 x137
       + 109220 x138 + 104908 x139 + 109671 x140 + 103556 x141 + 100289 x142
       + 103703 x143 + 102768 x144 + 96440 x145 + 92900 x146 + 95597 x147
       + 100598 x148 + 109886 x149 + 102745 x150 + 92141 x151 + 101210 x152
       + 91087 x153 + 93509 x154 + 104215 x155 + 102531 x156 + 105650 x157
       + 106594 x158 + 109184 x159 + 90423 x160 + 91853 x161 + 96668 x162
       + 90807 x163 + 104532 x164 + 97039 x165 + 92642 x166 + 102305 x167
       + 98685 x168 + 106931 x169 + 107271 x170 + 97978 x171 + 98893 x172
       + 96744 x173 + 93454 x174 + 99259 x175 + 101244 x176 + 96144 x177
       + 99710 x178 + 102075 x179 + 106198 x180 + 98624 x181 + 92920 x182
       + 96168 x183 + 91586 x184 + 104917 x185 + 90019 x186 + 106433 x187
       + 93077 x188 + 94828 x189 + 104601 x190 + 101312 x191 + 107880 x192
       + 92139 x193 + 109213 x194 + 103980 x195 + 105171 x196 + 103254 x197
       + 99648 x198 + 108279 x199 + 94995 x200 + 96347 x201 + 98491 x202
       + 103017 x203 + 107922 x204 + 94675 x205 + 108947 x206 + 96088 x207
       + 90061 x208 + 109227 x209 + 109441 x210 + 94303 x211 + 93584 x212
       + 101452 x213 + 96131 x214 + 106745 x215 + 100945 x216 + 107122 x217
       + 91825 x218 + 94526 x219 + 99034 x220 + 106858 x221 + 100275 x222
       + 97388 x223 + 91705 x224 + 102435 x225 + 108773 x226 + 105188 x227
       + 93572 x228 + 99544 x229 + 96428 x230 + 108081 x231 + 106637 x232
       + 91618 x233 + 97708 x234 + 90942 x235 + 103762 x236 + 93852 x237
       + 108665 x238 + 99942 x239 + 101219 x240 + 91769 x241 + 106723 x242
       + 102183 x243 + 96235 x244 + 104441 x245 + 103972 x246 + 102889 x247
       + 94935 x248 + 98929 x249 - 84879 x250 + 204103 x251 + 199933 x252
       + 192384 x253 + 180778 x254 + 218625 x255 + 215488 x256 + 219765 x257
       + 195170 x258 + 214362 x259 + 206758 x260 + 207865 x261 + 209834 x262
       + 217993 x263 + 182694 x264 + 208308 x265 + 182892 x266 + 199337 x267
       + 215563 x268 + 214013 x269 + 182140 x270 + 218305 x271 + 180062 x272
       + 185836 x273 + 210282 x274 + 181096 x275 + 184965 x276 + 210665 x277
       + 216013 x278 + 193353 x279 + 180898 x280 + 183217 x281 + 182707 x282
       + 205494 x283 + 195090 x284 + 193204 x285 + 180554 x286 + 206760 x287
       + 194896 x288 + 182685 x289 + 185859 x290 + 199538 x291 + 196633 x292
       + 215364 x293 + 192803 x294 + 214324 x295 + 194753 x296 + 190222 x297
       + 188335 x298 + 188211 x299 + 279871 x300
Subject To
 c1:   x5 + x17 + x29 - x30 + x35  = 0
 c2:   x55 + x67 + x79 - x80 + x85  = 0
 c3:   x105 + x117 + x129 - x130 + x135  = 0
 c4:   x155 + x167 + x179 - x180 + x185  = -1
 c5:   x205 + x217 + x229 - x230 + x235  = 0
 c6:   x1 - x6 + x12 - x13 + x31 - x33 - x35 - x37 - x43  = 0
 c7:   x51 - x56 + x62 - x63 + x81 - x83 - x85 - x87 - x93  = 0
 c8:   x101 - x106 + x112 - x113 + x131 - x133 - x135 - x137 - x143  = 0
 c9:   x151 - x156 + x162 - x163 + x181 - x183 - x185 - x187 - x193  = 0
 c10:  x201 - x206 + x212 - x213 + x231 - x233 - x235 - x237 - x243  = 0
 c11:  x9 - x17 - x31 + x41 - x42  = 0
 c12:  x59 - x67 - x81 + x91 - x92  = 1
 c13:  x109 - x117 - x131 + x141 - x142  = 0
 c14:  x159 - x167 - x181 + x191 - x192  = 0
 c15:  x209 - x217 - x231 + x241 - x242  = 0
 c16:  x3 - x20 - x21 + x23 + x32 + x40 + x47  = 1
 c17:  x53 - x70 - x71 + x73 + x82 + x90 + x97  = 0
 c18:  x103 - x120 - x121 + x123 + x132 + x140 + x147  = 0
 c19:  x153 - x170 - x171 + x173 + x182 + x190 + x197  = 0
 c20:  x203 - x220 - x221 + x223 + x232 + x240 + x247  = 0
 c21:  x8 - x9 - x12 + x18 - x22 + x27 + x33 + x34 - x38 + x49  = 0
 c22:  x58 - x59 - x62 + x68 - x72 + x77 + x83 + x84 - x88 + x99  = 0
 c23:  x108 - x109 - x112 + x118 - x122 + x127 + x133 + x134 - x138 + x149  = 0
 c24:  x158 - x159 - x162 + x168 - x172 + x177 + x183 + x184 - x188 + x199  = 0
 c25:  x208 - x209 - x212 + x218 - x222 + x227 + x233 + x234 - x238 + x249  = 0
 c26:  x7 + x25 + x37 + x38 - x45 - x46  = 0
 c27:  x57 + x75 + x87 + x88 - x95 - x96  = 0
 c28:  x107 + x125 + x137 + x138 - x145 - x146  = 0
 c29:  x157 + x175 + x187 + x188 - x195 - x196  = 0
 c30:  x207 + x225 + x237 + x238 - x245 - x246  = 0
 c31:  - x3 - x10 - x18 + x19 + x20 + x24  = 0
 c32:  - x53 - x60 - x68 + x69 + x70 + x74  = 0
 c33:  - x103 - x110 - x118 + x119 + x120 + x124  = 0
 c34:  - x153 - x160 - x168 + x169 + x170 + x174  = 0
 c35:  - x203 - x210 - x218 + x219 + x220 + x224  = 0
 c36:  - x2 - x19 + x21 - x27 + x44 - x48  = 0
 c37:  - x52 - x69 + x71 - x77 + x94 - x98  = 0
 c38:  - x102 - x119 + x121 - x127 + x144 - x148  = -1
 c39:  - x152 - x169 + x171 - x177 + x194 - x198  = 0
 c40:  - x202 - x219 + x221 - x227 + x244 - x248  = 0
 c41:  - x5 - x14 + x30 - x36 - x39 + x42 - x44 - x50  = -1
 c42:  - x55 - x64 + x80 - x86 - x89 + x92 - x94 - x100  = 0
 c43:  - x105 - x114 + x130 - x136 - x139 + x142 - x144 - x150  = 0
 c44:  - x155 - x164 + x180 - x186 - x189 + x192 - x194 - x200  = 0
 c45:  - x205 - x214 + x230 - x236 - x239 + x242 - x244 - x250  = 0
 c46:  x13 + x22 - x26 - x28 + x36 - x41  = 0
 c47:  x63 + x72 - x76 - x78 + x86 - x91  = 0
 c48:  x113 + x122 - x126 - x128 + x136 - x141  = 0
 c49:  x163 + x172 - x176 - x178 + x186 - x191  = 0
 c50:  x213 + x222 - x226 - x228 + x236 - x241  = -1
 c51:  - x7 - x16 - x34 - x40 + x45  = 0
 c52:  - x57 - x66 - x84 - x90 + x95  = 0
 c53:  - x107 - x116 - x134 - x140 + x145  = 0
 c54:  - x157 - x166 - x184 - x190 + x195  = 0
 c55:  - x207 - x216 - x234 - x240 + x245  = 1
 c56:  x6 + x11 - x23 - x29 + x50  = 0
 c57:  x56 + x61 - x73 - x79 + x100  = -1
 c58:  x106 + x111 - x123 - x129 + x150  = 0
 c59:  x156 + x161 - x173 - x179 + x200  = 1
 c60:  x206 + x211 - x223 - x229 + x250  = 0
 c61:  - x1 + x2 + x10 - x11 + x14 + x16 - x24 + x28 - x32  = 0
 c62:  - x51 + x52 + x60 - x61 + x64 + x66 - x74 + x78 - x82  = 0
 c63:  - x101 + x102 + x110 - x111 + x114 + x116 - x124 + x128 - x132  = 0
 c64:  - x151 + x152 + x160 - x161 + x164 + x166 - x174 + x178 - x182  = 0
 c65:  - x201 + x202 + x210 - x211 + x214 + x216 - x224 + x228 - x232  = 0
 c66:  - x4 + x15 + x39 + x43 + x46 + x48 - x49  = 0
 c67:  - x54 + x65 + x89 + x93 + x96 + x98 - x99  = 0
 c68:  - x104 + x115 + x139 + x143 + x146 + x148 - x149  = 1
 c69:  - x154 + x165 + x189 + x193 + x196 + x198 - x199  = 0
 c70:  - x204 + x215 + x239 + x243 + x246 + x248 - x249  = 0
 c71:  x4 - x8 - x15 - x25 + x26 - x47  = 0
 c72:  x54 - x58 - x65 - x75 + x76 - x97  = 0
 c73:  x104 - x108 - x115 - x125 + x126 - x147  = 0
 c74:  x154 - x158 - x165 - x175 + x176 - x197  = 0
 c75:  x204 - x208 - x215 - x225 + x226 - x247  = 0
 c76:  4 x1 + 4 x51 + 4 x101 + 4 x151 + 4 x201 - 11 x251 <= 0
 c77:  4 x2 + 4 x52 + 4 x102 + 4 x152 + 4 x202 - 11 x252 <= 0
 c78:  4 x3 + 4 x53 + 4 x103 + 4 x153 + 4 x203 - 9 x253 <= 0
 c79:  4 x4 + 4 x54 + 4 x104 + 4 x154 + 4 x204 - 10 x254 <= 0
 c80:  4 x5 + 4 x55 + 4 x105 + 4 x155 + 4 x205 - 10 x255 <= 0
 c81:  4 x6 + 4 x56 + 4 x106 + 4 x156 + 4 x206 - 11 x256 <= 0
 c82:  4 x7 + 4 x57 + 4 x107 + 4 x157 + 4 x207 - 10 x257 <= 0
 c83:  4 x8 + 4 x58 + 4 x108 + 4 x158 + 4 x208 - 10 x258 <= 0
 c84:  4 x9 + 4 x59 + 4 x109 + 4 x159 + 4 x209 - 10 x259 <= 0
 c85:  4 x10 + 4 x60 + 4 x110 + 4 x160 + 4 x210 - 10 x260 <= 0
 c86:  4 x11 + 4 x61 + 4 x111 + 4 x161 + 4 x211 - 10 x261 <= 0
 c87:  4 x12 + 4 x62 + 4 x112 + 4 x162 + 4 x212 - 10 x262 <= 0
 c88:  4 x13 + 4 x63 + 4 x113 + 4 x163 + 4 x213 - 10 x263 <= 0
 c89:  4 x14 + 4 x64 + 4 x114 + 4 x164 + 4 x214 - 11 x264 <= 0
 c90:  4 x15 + 4 x65 + 4 x115 + 4 x165 + 4 x215 - 11 x265 <= 0
 c91:  4 x16 + 4 x66 + 4 x116 + 4 x166 + 4 x216 - 11 x266 <= 0
 c92:  4 x17 + 4 x67 + 4 x117 + 4 x167 + 4 x217 - 9 x267 <= 0
 c93:  4 x18 + 4 x68 + 4 x118 + 4 x168 + 4 x218 - 10 x268 <= 0
 c94:  4 x19 + 4 x69 + 4 x119 + 4 x169 + 4 x219 - 10 x269 <= 0
 c95:  4 x20 + 4 x70 + 4 x120 + 4 x170 + 4 x220 - 10 x270 <= 0
 c96:  4 x21 + 4 x71 + 4 x121 + 4 x171 + 4 x221 - 10 x271 <= 0
 c97:  4 x22 + 4 x72 + 4 x122 + 4 x172 + 4 x222 - 9 x272 <= 0
 c98:  4 x23 + 4 x73 + 4 x123 + 4 x173 + 4 x223 - 11 x273 <= 0
 c99:  4 x24 + 4 x74 + 4 x124 + 4 x174 + 4 x224 - 11 x274 <= 0
 c100: 4 x25 + 4 x75 + 4 x125 + 4 x175 + 4 x225 - 9 x275 <= 0
 c101: 4 x26 + 4 x76 + 4 x126 + 4 x176 + 4 x226 - 10 x276 <= 0
 c102: 4 x27 + 4 x77 + 4 x127 + 4 x177 + 4 x227 - 10 x277 <= 0
 c103: 4 x28 + 4 x78 + 4 x128 + 4 x178 + 4 x228 - 11 x278 <= 0
 c104: 4 x29 + 4 x79 + 4 x129 + 4 x179 + 4 x229 - 11 x279 <= 0
 c105: 4 x30 + 4 x80 + 4 x130 + 4 x180 + 4 x230 - 10 x280 <= 0
 c106: 4 x31 + 4 x81 + 4 x131 + 4 x181 + 4 x231 - 11 x281 <= 0
 c107: 4 x32 + 4 x82 + 4 x132 + 4 x182 + 4 x232 - 11 x282 <= 0
 c108: 4 x33 + 4 x83 + 4 x133 + 4 x183 + 4 x233 - 9 x283 <= 0
 c109: 4 x34 + 4 x84 + 4 x134 + 4 x184 + 4 x234 - 11 x284 <= 0
 c110: 4 x35 + 4 x85 + 4 x135 + 4 x185 + 4 x235 - 11 x285 <= 0
 c111: 4 x36 + 4 x86 + 4 x136 + 4 x186 + 4 x236 - 10 x286 <= 0
 c112: 4 x37 + 4 x87 + 4 x137 + 4 x187 + 4 x237 - 11 x287 <= 0
 c113: 4 x38 + 4 x88 + 4 x138 + 4 x188 + 4 x238 - 10 x288 <= 0
 c114: 4 x39 + 4 x89 + 4 x139 + 4 x189 + 4 x239 - 9 x289 <= 0
 c115: 4 x40 + 4 x90 + 4 x140 + 4 x190 + 4 x240 - 10 x290 <= 0
 c116: 4 x41 + 4 x91 + 4 x141 + 4 x191 + 4 x241 - 10 x291 <= 0
 c117: 4 x42 + 4 x92 + 4 x142 + 4 x192 + 4 x242 - 10 x292 <= 0
 c118: 4 x43 + 4 x93 + 4 x143 + 4 x193 + 4 x243 - 11 x293 <= 0
 c119: 4 x44 + 4 x94 + 4 x144 + 4 x194 + 4 x244 - 10 x294 <= 0
 c120: 4 x45 + 4 x95 + 4 x145 + 4 x195 + 4 x245 - 10 x295 <= 0
 c121: 4 x46 + 4 x96 + 4 x146 + 4 x196 + 4 x246 - 10 x296 <= 0
 c122: 4 x47 + 4 x97 + 4 x147 + 4 x197 + 4 x247 - 9 x297 <= 0
 c123: 4 x48 + 4 x98 + 4 x148 + 4 x198 + 4 x248 - 11 x298 <= 0
 c124: 4 x49 + 4 x99 + 4 x149 + 4 x199 + 4 x249 - 10 x299 <= 0
 c125: 4 x50 + 4 x100 + 4 x150 + 4 x200 + 4 x250 <= 0
Bounds
 0 <= x1 <= 1
 0 <= x2 <= 1
 0 <= x3 <= 1
 0 <= x4 <= 1
 0 <= x5 <= 1
 0 <= x6 <= 1
 0 <= x7 <= 1
 0 <= x8 <= 1
 0 <= x9 <= 1
 0 <= x10 <= 1
 0 <= x11 <= 1
 0 <= x12 <= 1
 0 <= x13 <= 1
 0 <= x14 <= 1
 0 <= x15 <= 1
 0 <= x16 <= 1
 0 <= x17 <= 1
 0 <= x18 <= 1
 0 <= x19 <= 1
 0 <= x20 <= 1
 0 <= x21 <= 1
 0 <= x22 <= 1
 0 <= x23 <= 1
 0 <= x24 <= 1
 0 <= x25 <= 1
 0 <= x26 <= 1
 0 <= x27 <= 1
 0 <= x28 <= 1
 0 <= x29 <= 1
 0 <= x30 <= 1
 0 <= x31 <= 1
 0 <= x32 <= 1
 0 <= x33 <= 1
 0 <= x34 <= 1
 0 <= x35 <= 1
 0 <= x36 <= 1
 0 <= x37 <= 1
 0 <= x38 <= 1
 0 <= x39 <= 1
 0 <= x40 <= 1
 0 <= x41 <= 1
 0 <= x42 <= 1
 0 <= x43 <= 1
 0 <= x44 <= 1
 0 <= x45 <= 1
 0 <= x46 <= 1
 0 <= x47 <= 1
 0 <= x48 <= 1
 0 <= x49 <= 1
 0 <= x50 <= 1
 0 <= x51 <= 1
 0 <= x52 <= 1
 0 <= x53 <= 1
 0 <= x54 <= 1
 0 <= x55 <= 1
 0 <= x56 <= 1
 0 <= x57 <= 1
 0 <= x58 <= 1
 0 <= x59 <= 1
 0 <= x60 <= 1
 0 <= x61 <= 1
 0 <= x62 <= 1
 0 <= x63 <= 1
 0 <= x64 <= 1
 0 <= x65 <= 1
 0 <= x66 <= 1
 0 <= x67 <= 1
 0 <= x68 <= 1
 0 <= x69 <= 1
 0 <= x70 <= 1
 0 <= x71 <= 1
 0 <= x72 <= 1
 0 <= x73 <= 1
 0 <= x74 <= 1
 0 <= x75 <= 1
 0 <= x76 <= 1
 0 <= x77 <= 1
 0 <= x78 <= 1
 0 <= x79 <= 1
 0 <= x80 <= 1
 0 <= x81 <= 1
 0 <= x82 <= 1
 0 <= x83 <= 1
 0 <= x84 <= 1
 0 <= x85 <= 1
 0 <= x86 <= 1
 0 <= x87 <= 1
 0 <= x88 <= 1
 0 <= x89 <= 1
 0 <= x90 <= 1
 0 <= x91 <= 1
 0 <= x92 <= 1
 0 <= x93 <= 1
 0 <= x94 <= 1
 0 <= x95 <= 1
 0 <= x96 <= 1
 0 <= x97 <= 1
 0 <= x98 <= 1
 0 <= x99 <= 1
 0 <= x100 <= 1
 0 <= x101 <= 1
 0 <= x102 <= 1
 0 <= x103 <= 1
 0 <= x104 <= 1
 0 <= x105 <= 1
 0 <= x106 <= 1
 0 <= x107 <= 1
 0 <= x108 <= 1
 0 <= x109 <= 1
 0 <= x110 <= 1
 0 <= x111 <= 1
 0 <= x112 <= 1
 0 <= x113 <= 1
 0 <= x114 <= 1
 0 <= x115 <= 1
 0 <= x116 <= 1
 0 <= x117 <= 1
 0 <= x118 <= 1
 0 <= x119 <= 1
 0 <= x120 <= 1
 0 <= x121 <= 1
 0 <= x122 <= 1
 0 <= x123 <= 1
 0 <= x124 <= 1
 0 <= x125 <= 1
 0 <= x126 <= 1
 0 <= x127 <= 1
 0 <= x128 <= 1
 0 <= x129 <= 1
 0 <= x130 <= 1
 0 <= x131 <= 1
 0 <= x132 <= 1
 0 <= x133 <= 1
 0 <= x134 <= 1
 0 <= x135 <= 1
 0 <= x136 <= 1
 0 <= x137 <= 1
 0 <= x138 <= 1
 0 <= x139 <= 1
 0 <= x140 <= 1
 0 <= x141 <= 1
 0 <= x142 <= 1
 0 <= x143 <= 1
 0 <= x144 <= 1
 0 <= x145 <= 1
 0 <= x146 <= 1
 0 <= x147 <= 1
 0 <= x148 <= 1
 0 <= x149 <= 1
 0 <= x150 <= 1
 0 <= x151 <= 1
 0 <= x152 <= 1
 0 <= x153 <= 1
 0 <= x154 <= 1
 0 <= x155 <= 1
 0 <= x156 <= 1
 0 <= x157 <= 1
 0 <= x158 <= 1
 0 <= x159 <= 1
 0 <= x160 <= 1
 0 <= x161 <= 1
 0 <= x162 <= 1
 0 <= x163 <= 1
 0 <= x164 <= 1
 0 <= x165 <= 1
 0 <= x166 <= 1
 0 <= x167 <= 1
 0 <= x168 <= 1
 0 <= x169 <= 1
 0 <= x170 <= 1
 0 <= x171 <= 1
 0 <= x172 <= 1
 0 <= x173 <= 1
 0 <= x174 <= 1
 0 <= x175 <= 1
 0 <= x176 <= 1
 0 <= x177 <= 1
 0 <= x178 <= 1
 0 <= x179 <= 1
 0 <= x180 <= 1
 0 <= x181 <= 1
 0 <= x182 <= 1
 0 <= x183 <= 1
 0 <= x184 <= 1
 0 <= x185 <= 1
 0 <= x186 <= 1
 0 <= x187 <= 1
 0 <= x188 <= 1
 0 <= x189 <= 1
 0 <= x190 <= 1
 0 <= x191 <= 1
 0 <= x192 <= 1
 0 <= x193 <= 1
 0 <= x194 <= 1
 0 <= x195 <= 1
 0 <= x196 <= 1
 0 <= x197 <= 1
 0 <= x198 <= 1
 0 <= x199 <= 1
 0 <= x200 <= 1
 0 <= x201 <= 1
 0 <= x202 <= 1
 0 <= x203 <= 1
 0 <= x204 <= 1
 0 <= x205 <= 1
 0 <= x206 <= 1
 0 <= x207 <= 1
 0 <= x208 <= 1
 0 <= x209 <= 1
 0 <= x210 <= 1
 0 <= x211 <= 1
 0 <= x212 <= 1
 0 <= x213 <= 1
 0 <= x214 <= 1
 0 <= x215 <= 1
 0 <= x216 <= 1
 0 <= x217 <= 1
 0 <= x218 <= 1
 0 <= x219 <= 1
 0 <= x220 <= 1
 0 <= x221 <= 1
 0 <= x222 <= 1
 0 <= x223 <= 1
 0 <= x224 <= 1
 0 <= x225 <= 1
 0 <= x226 <= 1
 0 <= x227 <= 1
 0 <= x228 <= 1
 0 <= x229 <= 1
 0 <= x230 <= 1
 0 <= x231 <= 1
 0 <= x232 <= 1
 0 <= x233 <= 1
 0 <= x234 <= 1
 0 <= x235 <= 1
 0 <= x236 <= 1
 0 <= x237 <= 1
 0 <= x238 <= 1
 0 <= x239 <= 1
 0 <= x240 <= 1
 0 <= x241 <= 1
 0 <= x242 <= 1
 0 <= x243 <= 1
 0 <= x244 <= 1
 0 <= x245 <= 1
 0 <= x246 <= 1
 0 <= x247 <= 1
 0 <= x248 <= 1
 0 <= x249 <= 1
 0 <= x250 <= 1
 0 <= x251 <= 1
 0 <= x252 <= 1
 0 <= x253 <= 1
 0 <= x254 <= 1
 0 <= x255 <= 1
 0 <= x256 <= 1
 0 <= x257 <= 1
 0 <= x258 <= 1
 0 <= x259 <= 1
 0 <= x260 <= 1
 0 <= x261 <= 1
 0 <= x262 <= 1
 0 <= x263 <= 1
 0 <= x264 <= 1
 0 <= x265 <= 1
 0 <= x266 <= 1
 0 <= x267 <= 1
 0 <= x268 <= 1
 0 <= x269 <= 1
 0 <= x270 <= 1
 0 <= x271 <= 1
 0 <= x272 <= 1
 0 <= x273 <= 1
 0 <= x274 <= 1
 0 <= x275 <= 1
 0 <= x276 <= 1
 0 <= x277 <= 1
 0 <= x278 <= 1
 0 <= x279 <= 1
 0 <= x280 <= 1
 0 <= x281 <= 1
 0 <= x282 <= 1
 0 <= x283 <= 1
 0 <= x284 <= 1
 0 <= x285 <= 1
 0 <= x286 <= 1
 0 <= x287 <= 1
 0 <= x288 <= 1
 0 <= x289 <= 1
 0 <= x290 <= 1
 0 <= x291 <= 1
 0 <= x292 <= 1
 0 <= x293 <= 1
 0 <= x294 <= 1
 0 <= x295 <= 1
 0 <= x296 <= 1
 0 <= x297 <= 1
 0 <= x298 <= 1
 0 <= x299 <= 1
 0 <= x300 <= 1
Binaries
 x251  x252  x253  x254  x255  x256  x257  x258  x259  x260  x261  x262  x263 
 x264  x265  x266  x267  x268  x269  x270  x271  x272  x273  x274  x275  x276 
 x277  x278  x279  x280  x281  x282  x283  x284  x285  x286  x287  x288  x289 
 x290  x291  x292  x293  x294  x295  x296  x297  x298  x299  x300 
End
